12704
0 0 0 0 1 1 0 1 1 1 1 1 0 1 0 1 1 0 1 0 1 1 1 0 0 1 0 0 1 1
22 10 7 11 5 8 13 18 21 9 20 16 18 21 5 8 8 8 7 5 21 16 8 16 5 22 20 29 5 13 4 13 11 9 4 21 28 21 25 5 25 13 15 9 4 7 20 9 5 7 22 13 8 7 13 21 20 8 13 5 22 13 8 7 13 4 13 22 9 4 20 15 18 21 4 10 7 16 5 7 4 13 10 10 4 8 28 5 7 5 4 13 8 9 4 8 16 18 7 16 4 13 28 9 4 22 20 8 8 9 10 20 8 5 7 22 16 8 25 5 22 20 8 7 7 22 18 29 15 25 10 13 16 7 13 21 18 8 25 5 8 13 18 7 4 10 20 29 15 25